c description: Perfect Matching Principle on 
c generator: CNFgen (0.9.0)
c copyright: (C) 2012-2020 Massimo Lauria <massimo.lauria@uniroma1.it>
c url: https://massimolauria.net/cnfgen
c
p cnf 80 364
-1 -2 0
-1 -3 0
-2 -3 0
1 2 3 0
-4 -5 0
-4 -6 0
-4 -7 0
-5 -6 0
-5 -7 0
-6 -7 0
4 5 6 7 0
-8 -9 0
-8 -10 0
-8 -11 0
-8 -12 0
-9 -10 0
-9 -11 0
-9 -12 0
-10 -11 0
-10 -12 0
-11 -12 0
8 9 10 11 12 0
-13 -14 0
-13 -15 0
-13 -16 0
-14 -15 0
-14 -16 0
-15 -16 0
13 14 15 16 0
-17 -18 0
-17 -19 0
-17 -20 0
-18 -19 0
-18 -20 0
-19 -20 0
17 18 19 20 0
-21 -22 0
-21 -23 0
-22 -23 0
21 22 23 0
-4 -24 0
-4 -25 0
-4 -26 0
-4 -27 0
-24 -25 0
-24 -26 0
-24 -27 0
-25 -26 0
-25 -27 0
-26 -27 0
4 24 25 26 27 0
-8 -28 0
-8 -29 0
-8 -30 0
-8 -31 0
-8 -32 0
-8 -33 0
-28 -29 0
-28 -30 0
-28 -31 0
-28 -32 0
-28 -33 0
-29 -30 0
-29 -31 0
-29 -32 0
-29 -33 0
-30 -31 0
-30 -32 0
-30 -33 0
-31 -32 0
-31 -33 0
-32 -33 0
8 28 29 30 31 32 33 0
13 0
0
-34 -35 0
-34 -36 0
-35 -36 0
34 35 36 0
-24 -37 0
-24 -38 0
-24 -39 0
-37 -38 0
-37 -39 0
-38 -39 0
24 37 38 39 0
-40 -41 0
-40 -42 0
-41 -42 0
40 41 42 0
-14 -43 0
-14 -44 0
-43 -44 0
14 43 44 0
-45 -46 0
-45 -47 0
-46 -47 0
45 46 47 0
-48 -49 0
48 49 0
-50 -51 0
-50 -52 0
-51 -52 0
50 51 52 0
-21 -40 0
-21 -48 0
-21 -50 0
-21 -53 0
-21 -54 0
-21 -55 0
-21 -56 0
-21 -57 0
-40 -48 0
-40 -50 0
-40 -53 0
-40 -54 0
-40 -55 0
-40 -56 0
-40 -57 0
-48 -50 0
-48 -53 0
-48 -54 0
-48 -55 0
-48 -56 0
-48 -57 0
-50 -53 0
-50 -54 0
-50 -55 0
-50 -56 0
-50 -57 0
-53 -54 0
-53 -55 0
-53 -56 0
-53 -57 0
-54 -55 0
-54 -56 0
-54 -57 0
-55 -56 0
-55 -57 0
-56 -57 0
21 40 48 50 53 54 55 56 57 0
-15 -22 0
-15 -34 0
-15 -37 0
-15 -41 0
-15 -53 0
-15 -58 0
-22 -34 0
-22 -37 0
-22 -41 0
-22 -53 0
-22 -58 0
-34 -37 0
-34 -41 0
-34 -53 0
-34 -58 0
-37 -41 0
-37 -53 0
-37 -58 0
-41 -53 0
-41 -58 0
-53 -58 0
15 22 34 37 41 53 58 0
-28 -59 0
28 59 0
-17 -54 0
-17 -58 0
-54 -58 0
17 54 58 0
18 0
-1 -9 0
-1 -60 0
-9 -60 0
1 9 60 0
-5 -10 0
-5 -25 0
-5 -61 0
-5 -62 0
-5 -63 0
-10 -25 0
-10 -61 0
-10 -62 0
-10 -63 0
-25 -61 0
-25 -62 0
-25 -63 0
-61 -62 0
-61 -63 0
-62 -63 0
5 10 25 61 62 63 0
64 0
-11 -19 0
-11 -65 0
-11 -66 0
-11 -67 0
-19 -65 0
-19 -66 0
-19 -67 0
-65 -66 0
-65 -67 0
-66 -67 0
11 19 65 66 67 0
-23 -55 0
-23 -68 0
-23 -69 0
-23 -70 0
-55 -68 0
-55 -69 0
-55 -70 0
-68 -69 0
-68 -70 0
-69 -70 0
23 55 68 69 70 0
-6 -35 0
-6 -43 0
-6 -45 0
-6 -59 0
-6 -60 0
-6 -71 0
-35 -43 0
-35 -45 0
-35 -59 0
-35 -60 0
-35 -71 0
-43 -45 0
-43 -59 0
-43 -60 0
-43 -71 0
-45 -59 0
-45 -60 0
-45 -71 0
-59 -60 0
-59 -71 0
-60 -71 0
6 35 43 45 59 60 71 0
-2 -26 0
-2 -72 0
-2 -73 0
-26 -72 0
-26 -73 0
-72 -73 0
2 26 72 73 0
-36 -74 0
-36 -75 0
-74 -75 0
36 74 75 0
-38 -61 0
-38 -71 0
-38 -72 0
-38 -76 0
-38 -77 0
-38 -78 0
-61 -71 0
-61 -72 0
-61 -76 0
-61 -77 0
-61 -78 0
-71 -72 0
-71 -76 0
-71 -77 0
-71 -78 0
-72 -76 0
-72 -77 0
-72 -78 0
-76 -77 0
-76 -78 0
-77 -78 0
38 61 71 72 76 77 78 0
-3 -44 0
3 44 0
-12 -42 0
-12 -62 0
-42 -62 0
12 42 62 0
-27 -29 0
-27 -49 0
-27 -56 0
-27 -74 0
-27 -76 0
-27 -79 0
-29 -49 0
-29 -56 0
-29 -74 0
-29 -76 0
-29 -79 0
-49 -56 0
-49 -74 0
-49 -76 0
-49 -79 0
-56 -74 0
-56 -76 0
-56 -79 0
-74 -76 0
-74 -79 0
-76 -79 0
27 29 49 56 74 76 79 0
-30 -65 0
-30 -68 0
-65 -68 0
30 65 68 0
-7 -51 0
-7 -63 0
-7 -79 0
-51 -63 0
-51 -79 0
-63 -79 0
7 51 63 79 0
-16 -46 0
-16 -66 0
-16 -69 0
-16 -73 0
-16 -75 0
-16 -80 0
-46 -66 0
-46 -69 0
-46 -73 0
-46 -75 0
-46 -80 0
-66 -69 0
-66 -73 0
-66 -75 0
-66 -80 0
-69 -73 0
-69 -75 0
-69 -80 0
-73 -75 0
-73 -80 0
-75 -80 0
16 46 66 69 73 75 80 0
-31 -57 0
31 57 0
-32 -52 0
-32 -64 0
-32 -67 0
-32 -70 0
-32 -77 0
-32 -80 0
-52 -64 0
-52 -67 0
-52 -70 0
-52 -77 0
-52 -80 0
-64 -67 0
-64 -70 0
-64 -77 0
-64 -80 0
-67 -70 0
-67 -77 0
-67 -80 0
-70 -77 0
-70 -80 0
-77 -80 0
32 52 64 67 70 77 80 0
-20 -33 0
-20 -39 0
-20 -47 0
-20 -78 0
-33 -39 0
-33 -47 0
-33 -78 0
-39 -47 0
-39 -78 0
-47 -78 0
20 33 39 47 78 0